(set-logic QF_FP)
(set-option :produce-models true)
(set-info :source |Random FP created by PyMPF|)
(set-info :category random)
(set-info :status sat)
(declare-const x Float32)
(assert (= x ((_ to_fp 8 24) #xCAB6A49D)))
(declare-const y Float32)
(assert (= y ((_ to_fp 8 24) #xCA4F29DA)))
(declare-const z Float32)
(assert (= z ((_ to_fp 8 24) #x807FFFFF)))
(declare-const result Float32)
(assert (= result (fp.fma RTP x y z)))
(assert (= result ((_ to_fp 8 24) #x5593CCF7)))
(check-sat)
(exit)
